k = 12;
b = 6;
AtomicConstraints =  [|
9, 7|
	9, 8|
	10, 7|
	10, 8|
	11, 7|
	11, 8|
	11, 9|
	11, 10|
	12, 8|
	12, 9|
	12, 10|];
DisjunctiveConstraints =  [|2, 1, 2, 3|
	3, 2, 3, 4|
	4, 3, 4, 5|
	5, 4, 5, 6|
	9, 7, 9, 1|
	9, 8, 9, 2|
	10, 7, 1, 10|
	10, 8, 10, 2|
	11, 3, 11, 9|
	11, 4, 11, 10|
	11, 8, 11, 2|
	12, 4, 12, 10|
	12, 9, 3, 12|];
SoftAtomicConstraints =  [|
1, 2|
2, 3|
3, 4|
4, 5|
5, 6|
7, 8|
9, 10|
11, 12|];
DirectSuccessors =  [];
